4 4 100 1 2
0 700
 1 40.00 50.00 0.00 0.00 0.00 0 0 0 3390
 2 52.00 75.00 90.00 10.00 20.00 1 1 1 71 711
 3 45.00 70.00 90.00 30.00 10.00 1 1 1 20 660
 4 62.00 69.00 90.00 10.00 10.00 1 1 1 927 1567
 5 60.00 66.00 90.00 10.00 10.00 1 1 1 1021 1661
 6 42.00 65.00 90.00 10.00 20.00 1 1 1 15 655
 7 16.00 42.00 90.00 20.00 30.00 1 1 1 257 897
 8 58.00 70.00 90.00 20.00 20.00 1 1 1 833 1473
 9 34.00 60.00 90.00 20.00 10.00 1 1 1 2647 3287
 10 28.00 70.00 90.00 10.00 30.00 1 1 1 2361 3001
 11 35.00 66.00 90.00 10.00 10.00 1 1 1 2551 3191
 12 35.00 69.00 90.00 10.00 20.00 1 1 1 2458 3098
 13 25.00 85.00 90.00 20.00 10.00 1 1 1 1879 2519
 14 22.00 75.00 90.00 30.00 20.00 1 1 1 2165 2805
 15 22.00 85.00 90.00 10.00 10.00 1 1 1 1786 2426
 16 20.00 80.00 90.00 40.00 10.00 1 1 1 1976 2616
 17 20.00 85.00 90.00 40.00 20.00 1 1 1 1694 2334
 18 18.00 75.00 90.00 20.00 20.00 1 1 1 2071 2711
 19 15.00 75.00 90.00 20.00 10.00 1 1 1 1502 2142
 20 15.00 80.00 90.00 10.00 10.00 1 1 1 1597 2237
 21 30.00 50.00 90.00 10.00 10.00 1 1 1 10 650
 22 30.00 56.00 90.00 20.00 20.00 1 1 1 2648 3288
 23 28.00 52.00 90.00 20.00 30.00 1 1 1 12 652
 24 14.00 66.00 90.00 10.00 10.00 1 1 1 1403 2043
 25 25.00 50.00 90.00 10.00 40.00 1 1 1 15 655
 26 22.00 66.00 90.00 40.00 10.00 1 1 1 2264 2904
 27 8.00 62.00 90.00 10.00 10.00 1 1 1 1305 1945
 28 23.00 52.00 90.00 10.00 10.00 1 1 1 17 657
 29 4.00 55.00 90.00 20.00 20.00 1 1 1 1207 1847
 30 20.00 50.00 90.00 10.00 10.00 1 1 1 158 798
 31 20.00 55.00 90.00 10.00 30.00 1 1 1 63 703
 32 10.00 35.00 90.00 20.00 10.00 1 1 1 541 1181
 33 10.00 40.00 90.00 30.00 30.00 1 1 1 353 993
 34 8.00 40.00 90.00 40.00 10.00 1 1 1 445 1085
 35 8.00 45.00 90.00 20.00 10.00 1 1 1 1106 1746
 36 5.00 35.00 90.00 10.00 10.00 1 1 1 636 1276
 37 5.00 45.00 90.00 10.00 10.00 1 1 1 1013 1653
 38 2.00 40.00 90.00 20.00 10.00 1 1 1 731 1371
 39 0.00 40.00 90.00 30.00 20.00 1 1 1 823 1463
 40 0.00 45.00 90.00 20.00 10.00 1 1 1 918 1558
 41 36.00 18.00 90.00 10.00 40.00 1 1 1 1579 2219
 42 35.00 32.00 90.00 10.00 10.00 1 1 1 2518 3158
 43 33.00 32.00 90.00 20.00 40.00 1 1 1 2426 3066
 44 33.00 35.00 90.00 10.00 10.00 1 1 1 2333 2973
 45 32.00 20.00 90.00 10.00 30.00 1 1 1 1673 2313
 46 30.00 30.00 90.00 10.00 30.00 1 1 1 1865 2505
 47 34.00 25.00 90.00 30.00 30.00 1 1 1 1769 2409
 48 30.00 35.00 90.00 10.00 10.00 1 1 1 2240 2880
 49 36.00 40.00 90.00 10.00 20.00 1 1 1 2616 3256
 50 48.00 20.00 90.00 10.00 10.00 1 1 1 727 1367
 51 26.00 32.00 90.00 10.00 10.00 1 1 1 2052 2692
 52 25.00 30.00 90.00 10.00 10.00 1 1 1 1960 2600
 53 25.00 35.00 90.00 10.00 10.00 1 1 1 2145 2785
 54 44.00 5.00 90.00 20.00 40.00 1 1 1 1016 1656
 55 42.00 10.00 90.00 40.00 10.00 1 1 1 920 1560
 56 42.00 15.00 90.00 10.00 10.00 1 1 1 825 1465
 57 40.00 5.00 90.00 30.00 10.00 1 1 1 1110 1750
 58 38.00 15.00 90.00 40.00 10.00 1 1 1 1485 2125
 59 38.00 5.00 90.00 30.00 30.00 1 1 1 1202 1842
 60 38.00 10.00 90.00 10.00 10.00 1 1 1 1390 2030
 61 35.00 5.00 90.00 20.00 40.00 1 1 1 1295 1935
 62 50.00 30.00 90.00 10.00 10.00 1 1 1 161 801
 63 50.00 35.00 90.00 20.00 30.00 1 1 1 18 658
 64 50.00 40.00 90.00 50.00 10.00 1 1 1 14 654
 65 48.00 30.00 90.00 10.00 10.00 1 1 1 253 893
 66 44.00 25.00 90.00 10.00 40.00 1 1 1 631 1271
 67 47.00 35.00 90.00 10.00 20.00 1 1 1 348 988
 68 47.00 40.00 90.00 10.00 10.00 1 1 1 12 652
 69 42.00 30.00 90.00 10.00 10.00 1 1 1 536 1176
 70 45.00 35.00 90.00 10.00 20.00 1 1 1 440 1080
 71 95.00 30.00 90.00 30.00 20.00 1 1 1 2081 2721
 72 95.00 35.00 90.00 20.00 10.00 1 1 1 1986 2626
 73 53.00 30.00 90.00 10.00 10.00 1 1 1 68 708
 74 92.00 30.00 90.00 10.00 20.00 1 1 1 2174 2814
 75 53.00 35.00 90.00 50.00 20.00 1 1 1 19 659
 76 45.00 65.00 90.00 20.00 10.00 1 1 1 15 655
 77 90.00 35.00 90.00 10.00 10.00 1 1 1 1891 2531
 78 72.00 45.00 90.00 10.00 30.00 1 1 1 2627 3267
 79 78.00 40.00 90.00 20.00 20.00 1 1 1 2562 3202
 80 87.00 30.00 90.00 10.00 20.00 1 1 1 2368 3008
 81 85.00 25.00 90.00 10.00 40.00 1 1 1 2273 2913
 82 85.00 35.00 90.00 30.00 20.00 1 1 1 2463 3103
 83 75.00 55.00 90.00 20.00 10.00 1 1 1 1685 2325
 84 72.00 55.00 90.00 10.00 30.00 1 1 1 1592 2232
 85 70.00 58.00 90.00 20.00 10.00 1 1 1 1401 2041
 86 86.00 46.00 90.00 30.00 20.00 1 1 1 1789 2429
 87 66.00 55.00 90.00 10.00 20.00 1 1 1 1496 2136
 88 64.00 46.00 90.00 20.00 10.00 1 1 1 2635 3275
 89 65.00 60.00 90.00 30.00 10.00 1 1 1 1306 1946
 90 56.00 64.00 90.00 10.00 20.00 1 1 1 1115 1755
 91 60.00 55.00 90.00 10.00 20.00 1 1 1 2639 3279
 92 60.00 60.00 90.00 10.00 10.00 1 1 1 1211 1851
 93 67.00 85.00 90.00 20.00 50.00 1 1 1 454 1094
 94 42.00 58.00 90.00 40.00 20.00 1 1 1 8 648
 95 65.00 82.00 90.00 10.00 10.00 1 1 1 548 1188
 96 62.00 80.00 90.00 30.00 30.00 1 1 1 641 1281
 97 62.00 40.00 90.00 10.00 20.00 1 1 1 2635 3275
 98 60.00 85.00 90.00 30.00 20.00 1 1 1 357 997
 99 58.00 75.00 90.00 20.00 10.00 1 1 1 738 1378
 100 55.00 80.00 90.00 10.00 10.00 1 1 1 167 807
 101 55.00 85.00 90.00 20.00 50.00 1 1 1 262 902
